55757
371,486,498,681,830,1018,1041,1132,1264,1296,1397,1531,1542,1664,1701,2620,2729,2829,2907,2966,3012,3068,3210,3216,3307,3326,3349,3361,3435,3445,3446,3562,3610,3671,3675,3683,3758,3781,3881,3927,4089,4188,4233,4274,4291,4434,4512,4571,4597,4653,4685,4749,5167,5372,5387,5390,5440,5513,5616,5677,5763,5966,5977,6055,6125,6334,6335,6479,6551,6572,6723,6863,7063,7120,7209,7317,7326,7385,7541,7633,7733,7738,7744,7791,7804,7875,8168,8217,8238,8338,8395,8432,8509,8543,8584,8806,8867,8888,8925,9184,9242,9295,9333,9474,9515,9628,9697,9761,9814,9961,9971
